ssat_solver_solve2
#level: 3
Abc_NtkNodeNum(s->pNtk): 54507  , BDD limit: 65408
Build BDD success
level 2: 63 element
Exist
level 1: 10 element
Random
level 0: 33 element
Exist
c ssat solving in ABC
#var: 106
s SATISFIABLE
  > Upper bound = 1.953125e-03
  > Lower bound = 1.953125e-03
FINISHED CPU 0.77 MEM 73376 MAXMEM 73376 STALE 1 MAXMEM_RSS 30384
<time name="ALL">780</time>
real 1.49
user 1.02
sys 0.60
